NAME : amz1505.152654_151154.tour
COMMENT : Cost = 152654_151154
COMMENT : Found by LKH-AMZ [Keld Helsgaun] Sun May 11 14:54:38 2025
COMMENT : TW viol.: 0 #: 0
TYPE : TOUR
DIMENSION : 142
TOUR_SECTION
136
27
39
9
80
109
107
95
93
137
85
71
1
40
122
4
106
49
52
112
16
63
101
17
116
114
105
72
6
84
64
12
48
130
28
69
108
135
37
127
14
113
131
50
31
140
120
73
78
90
141
92
54
134
29
98
18
42
126
62
102
89
24
129
133
132
34
13
82
81
47
61
11
86
87
26
70
118
45
99
66
41
32
15
125
100
30
5
7
83
94
46
121
97
74
19
53
139
67
56
138
20
77
65
142
38
33
36
35
51
104
55
10
43
111
117
76
88
79
119
75
115
8
23
22
110
3
68
96
103
21
25
60
123
124
59
58
44
57
128
2
91
-1
EOF
